; benchmark generated from python API
(set-info :status unknown)
(declare-sort client)
 (declare-fun |__fml:cl| () client)
(declare-fun @X () client)
(declare-fun __client$1 () client)
(declare-fun __client$0 () client)
(declare-fun __homeInvalidateList (client) Bool)
(declare-fun homeInvalidateList (client) Bool)
(declare-fun __invalidate (client) Bool)
(declare-fun invalidate (client) Bool)
(declare-fun l2s_g_8 () Bool)
(declare-fun signal_sendInvalidateRule () Bool)
(declare-fun __m_l2s_w_2 () Bool)
(declare-fun l2s_w_2 () Bool)
(declare-fun __m_l2s_g_8 () Bool)
(declare-fun new__old_l2s_g_8_a () Bool)
(declare-fun __m_l2s_g_4 () Bool)
(declare-fun new__old_l2s_g_4_a () Bool)
(declare-fun __m_signal_sendInvalidateRule () Bool)
(declare-fun __m_l2s_w_2_a () Bool)
(declare-fun __l2s_g_8 () Bool)
(declare-fun __m__old_l2s_g_8 () Bool)
(declare-fun __l2s_g_4 () Bool)
(declare-fun __m__old_l2s_g_4 () Bool)
(declare-fun l2s_g_6 () Bool)
(declare-fun signal_grantExclusiveRule () Bool)
(declare-fun l2s_w_0 () Bool)
(declare-fun __signal_sendInvalidateRule () Bool)
(declare-fun l2s_g_7 () Bool)
(declare-fun signal_receiveInvalidateAckRule () Bool)
(declare-fun l2s_w_1 () Bool)
(declare-fun l2s_g_9 () Bool)
(declare-fun signal_sharerInvalidatesCacheRule () Bool)
(declare-fun l2s_w_3 () Bool)
(declare-fun l2s_g_1 () Bool)
(declare-fun l2s_g_0 () Bool)
(declare-fun homeCurrentReqExclusive () Bool)
(declare-fun l2s_w_4 () Bool)
(declare-fun |work_invar[3]| () Bool)
(declare-fun |work_needed[3]| () Bool)
(declare-fun |work_created[3]| () Bool)
(declare-fun |work_invar[2]| () Bool)
(declare-fun invalidateAck (client) Bool)
(declare-fun |work_needed[2]| (client) Bool)
(declare-fun homeSharerList (client) Bool)
(declare-fun |work_created[2]| (client) Bool)
(declare-fun |work_invar[1]| () Bool)
(declare-fun |work_needed[1]| (client) Bool)
(declare-fun |work_created[1]| (client) Bool)
(declare-fun |work_invar[0]| () Bool)
(declare-fun |work_needed[0]| (client) Bool)
(declare-fun |work_created[0]| (client) Bool)
(declare-fun |__m_work_needed[1]| (client) Bool)
(declare-fun |__m_work_needed[0]| (client) Bool)
(declare-fun l2s_g_4 () Bool)
(declare-fun homeExclusiveGranted () Bool)
(declare-fun homeCurrentReqShared () Bool)
(declare-fun grantExclusive (client) Bool)
(declare-fun grantShared (client) Bool)
(declare-fun l2s_g_5 () Bool)
(declare-fun l2s_g_3 () Bool)
(declare-fun l2s_g_2 () Bool)
(declare-fun |__work_needed[3]| () Bool)
(declare-fun |__work_needed[2]| (client) Bool)
(declare-fun |__work_needed[1]| (client) Bool)
(declare-fun |__work_needed[0]| (client) Bool)
(declare-fun cacheShared (client) Bool)
(declare-fun cacheExclusive (client) Bool)
(declare-fun reqExclusive (client) Bool)
(declare-fun reqShared (client) Bool)
(declare-fun l2s_init_0 () Bool)
(declare-fun l2s_init_1 () Bool)
(declare-fun l2s_init_2 () Bool)
(declare-fun l2s_init_4 () Bool)
(declare-fun l2s_init_3 () Bool)
(assert
 (let (($x434 (forall ((|V0:client| client) )(let (($x205 (homeInvalidateList |V0:client|)))
 (= $x205 (ite (and (= |V0:client| |__fml:cl|)) false (__homeInvalidateList |V0:client|)))))
 ))
 (let (($x150 (forall ((|V0:client| client) )(let (($x171 (invalidate |V0:client|)))
 (= $x171 (ite (and (= |V0:client| |__fml:cl|)) true (__invalidate |V0:client|)))))
 ))
 (let (($x426 (= l2s_w_2 (and __m_l2s_w_2 (not signal_sendInvalidateRule) (not l2s_g_8)))))
 (let (($x153 (not signal_sendInvalidateRule)))
 (let (($x494 (= new__old_l2s_g_8_a __m_l2s_g_8)))
 (let (($x279 (= new__old_l2s_g_4_a __m_l2s_g_4)))
 (let (($x455 (not __m_l2s_g_8)))
 (let (($x416 (not __m_signal_sendInvalidateRule)))
 (let (($x500 (= __m__old_l2s_g_8 __l2s_g_8)))
 (let (($x303 (= __m__old_l2s_g_4 __l2s_g_4)))
 (let (($x382 (= __m_l2s_w_2_a (and (not __signal_sendInvalidateRule) (not __l2s_g_8)))))
 (let (($x483 (= l2s_w_1 (and (not signal_receiveInvalidateAckRule) (not l2s_g_7)))))
 (let (($x402 (= l2s_w_3 (and (not signal_sharerInvalidatesCacheRule) (not l2s_g_9)))))
 (let (($x79 (not l2s_g_1)))
 (let (($x63 (= l2s_w_4 (and (not (not (=> homeCurrentReqExclusive (not l2s_g_0)))) $x79))))
 (let (($x271 (forall ((|X:client| client) )(let (($x205 (homeInvalidateList |X:client|)))
 (not $x205)))
 ))
 (let (($x485 (forall ((|X:client| client) )(= (|work_needed[2]| |X:client|) (and (homeInvalidateList |X:client|) (invalidateAck |X:client|))))
 ))
 (let (($x310 (forall ((|X:client| client) )(let (($x118 (homeSharerList |X:client|)))
 (= (|work_created[2]| |X:client|) $x118)))
 ))
 (let (($x315 (forall ((|X:client| client) )(let (($x565 (invalidateAck |X:client|)))
 (let (($x374 (not $x565)))
 (= (|work_needed[1]| |X:client|) (and (and (homeInvalidateList |X:client|) (invalidate |X:client|)) $x374)))))
 ))
 (let (($x42 (forall ((|X:client| client) )(let (($x118 (homeSharerList |X:client|)))
 (= (|work_created[1]| |X:client|) $x118)))
 ))
 (let (($x511 (forall ((|X:client| client) )(let (($x565 (invalidateAck |X:client|)))
 (let (($x374 (not $x565)))
 (= (|work_needed[0]| |X:client|) (and (and (homeInvalidateList |X:client|) (not (invalidate |X:client|))) $x374)))))
 ))
 (let (($x21 (forall ((|X:client| client) )(let (($x118 (homeSharerList |X:client|)))
 (= (|work_created[0]| |X:client|) $x118)))
 ))
 (let (($x158 (forall ((|X:client| client) )(let (($x565 (invalidateAck |X:client|)))
 (let (($x374 (not $x565)))
 (= (|__m_work_needed[1]| |X:client|) (and (and (__homeInvalidateList |X:client|) (invalidate |X:client|)) $x374)))))
 ))
 (let (($x318 (forall ((|X:client| client) )(let (($x565 (invalidateAck |X:client|)))
 (let (($x374 (not $x565)))
 (= (|__m_work_needed[0]| |X:client|) (and (and (__homeInvalidateList |X:client|) (not (invalidate |X:client|))) $x374)))))
 ))
 (let (($x404 (=> (and (not __m__old_l2s_g_8) (not __signal_sendInvalidateRule)) $x455)))
 (let (($x65 (or homeCurrentReqExclusive (and homeCurrentReqShared homeExclusiveGranted))))
 (let (($x306 (__homeInvalidateList |__fml:cl|)))
 (let (($x268 (forall ((|X:client| client) )(let (($x277 (__homeInvalidateList |X:client|)))
 (not $x277)))
 ))
 (let (($x457 (forall ((|X:client| client) )(= (|__work_needed[2]| |X:client|) (and (__homeInvalidateList |X:client|) (invalidateAck |X:client|))))
 ))
 (let (($x487 (forall ((|X:client| client) )(let (($x565 (invalidateAck |X:client|)))
 (let (($x374 (not $x565)))
 (= (|__work_needed[1]| |X:client|) (and (and (__homeInvalidateList |X:client|) (__invalidate |X:client|)) $x374)))))
 ))
 (let (($x218 (forall ((|X:client| client) )(let (($x565 (invalidateAck |X:client|)))
 (let (($x374 (not $x565)))
 (= (|__work_needed[0]| |X:client|) (and (and (__homeInvalidateList |X:client|) (not (__invalidate |X:client|))) $x374)))))
 ))
 (let (($x19 (not signal_grantExclusiveRule)))
 (let (($x295 (not signal_receiveInvalidateAckRule)))
 (let (($x533 (not signal_sharerInvalidatesCacheRule)))
 (let (($x191 (not __signal_sendInvalidateRule)))
 (let (($x472 (forall ((|C:client| client) )(let (($x230 (not homeCurrentReqShared)))
 (let (($x592 (not homeCurrentReqExclusive)))
 (let (($x117 (__invalidate |C:client|)))
 (not (and $x117 $x592 $x230))))))
 ))
 (let (($x369 (forall ((|C:client| client) )(not (and (grantShared |C:client|) homeExclusiveGranted)))
 ))
 (let (($x87 (forall ((|C:client| client) )(not (and (__invalidate |C:client|) (__homeInvalidateList |C:client|))))
 ))
 (let (($x58 (forall ((|C:client| client) )(not (and (cacheShared |C:client|) homeExclusiveGranted)))
 ))
 (let (($x395 (forall ((|C:client| client) (|C1:client| client) )(=> (and (not (= |C:client| |C1:client|)) (cacheExclusive |C:client|)) (and (not (cacheExclusive |C1:client|)) (not (cacheShared |C1:client|)))))
 ))
 (let (($x96 (forall ((|C:client| client) )(not (and (not (homeSharerList |C:client|)) (cacheExclusive |C:client|))))
 ))
 (let (($x48 (forall ((|C:client| client) )(let (($x592 (not homeCurrentReqExclusive)))
 (let (($x415 (not homeExclusiveGranted)))
 (let (($x117 (__invalidate |C:client|)))
 (not (and $x117 $x415 $x592))))))
 ))
 (let (($x103 (forall ((|C:client| client) )(not (and (invalidateAck |C:client|) (grantExclusive |C:client|))))
 ))
 (let (($x135 (forall ((|C:client| client) )(let (($x592 (not homeCurrentReqExclusive)))
 (let (($x415 (not homeExclusiveGranted)))
 (let (($x10 (cacheShared |C:client|)))
 (let (($x169 (not $x10)))
 (let (($x118 (homeSharerList |C:client|)))
 (let (($x445 (grantShared |C:client|)))
 (let (($x333 (not $x445)))
 (not (and $x333 $x118 $x169 $x415 $x592))))))))))
 ))
 (let (($x26 (forall ((|C:client| client) (|C1:client| client) )(not (and (invalidateAck |C:client|) (cacheExclusive |C1:client|))))
 ))
 (let (($x584 (forall ((|C:client| client) )(not (and (__invalidate |C:client|) (grantShared |C:client|))))
 ))
 (let (($x381 (forall ((|C:client| client) )(not (and (not (homeSharerList |C:client|)) (invalidateAck |C:client|))))
 ))
 (let (($x138 (forall ((|C:client| client) (|C1:client| client) )(not (and (grantExclusive |C:client|) (cacheExclusive |C1:client|))))
 ))
 (let (($x546 (forall ((|C:client| client) )(let (($x415 (not homeExclusiveGranted)))
 (let (($x10 (cacheShared |C:client|)))
 (let (($x169 (not $x10)))
 (let (($x277 (__homeInvalidateList |C:client|)))
 (let (($x445 (grantShared |C:client|)))
 (let (($x333 (not $x445)))
 (not (and $x333 $x277 $x169 $x415)))))))))
 ))
 (let (($x393 (forall ((|C:client| client) (|C1:client| client) )(let (($x118 (homeSharerList |C1:client|)))
 (let (($x526 (homeSharerList |C:client|)))
 (not (and (not (= |C1:client| |C:client|)) $x526 $x118 homeExclusiveGranted)))))
 ))
 (let (($x119 (forall ((|C:client| client) )(not (and (cacheExclusive |C:client|) (not homeExclusiveGranted))))
 ))
 (let (($x123 (forall ((|C:client| client) )(not (and (not (homeSharerList |C:client|)) (grantExclusive |C:client|))))
 ))
 (let (($x357 (forall ((|C:client| client) )(let (($x230 (not homeCurrentReqShared)))
 (let (($x592 (not homeCurrentReqExclusive)))
 (let (($x277 (__homeInvalidateList |C:client|)))
 (let (($x52 (grantExclusive |C:client|)))
 (not (and $x52 $x277 $x592 $x230)))))))
 ))
 (let (($x11 (forall ((|C:client| client) )(not (and (invalidateAck |C:client|) (grantShared |C:client|))))
 ))
 (let (($x586 (forall ((|C:client| client) )(let (($x230 (not homeCurrentReqShared)))
 (let (($x592 (not homeCurrentReqExclusive)))
 (let (($x149 (cacheExclusive |C:client|)))
 (let (($x549 (not $x149)))
 (let (($x118 (homeSharerList |C:client|)))
 (let (($x52 (grantExclusive |C:client|)))
 (let (($x57 (not $x52)))
 (not (and $x57 $x118 $x549 homeExclusiveGranted $x592 $x230))))))))))
 ))
 (let (($x475 (forall ((|C:client| client) )(not (and (invalidateAck |C:client|) (cacheShared |C:client|))))
 ))
 (let (($x7 (forall ((|C:client| client) )(not (and (reqShared |C:client|) (reqExclusive |C:client|))))
 ))
 (let (($x24 (forall ((|C:client| client) )(not (and (grantExclusive |C:client|) (not homeExclusiveGranted))))
 ))
 (let (($x70 (forall ((|C:client| client) )(let (($x149 (cacheExclusive |C:client|)))
 (let (($x549 (not $x149)))
 (let (($x277 (__homeInvalidateList |C:client|)))
 (let (($x52 (grantExclusive |C:client|)))
 (let (($x57 (not $x52)))
 (not (and $x57 $x277 $x549 homeExclusiveGranted))))))))
 ))
 (let (($x341 (forall ((|C:client| client) )(let (($x117 (__invalidate |C:client|)))
 (let (($x149 (cacheExclusive |C:client|)))
 (let (($x549 (not $x149)))
 (let (($x10 (cacheShared |C:client|)))
 (let (($x169 (not $x10)))
 (not (and $x169 $x549 $x117))))))))
 ))
 (let (($x130 (forall ((|C:client| client) )(not (and (not (homeSharerList |C:client|)) (grantShared |C:client|))))
 ))
 (let (($x124 (forall ((|C:client| client) )(not (and (not (homeSharerList |C:client|)) (cacheShared |C:client|))))
 ))
 (let (($x297 (forall ((|C:client| client) (|D:client| client) )(let (($x517 (cacheExclusive |C:client|)))
 (let (($x61 (and (not (= |C:client| |D:client|)) $x517 (or (cacheExclusive |D:client|) (cacheShared |D:client|)))))
 (not $x61))))
 ))
 (let (($x452 (=> (and l2s_init_3 l2s_init_4 l2s_init_2 l2s_init_1) l2s_init_0)))
 (let (($x77 (forall ((|X:client| client) )(=> (|work_created[2]| |X:client|) true))
 ))
 (let (($x114 (forall ((|X:client| client) )(=> (|work_created[1]| |X:client|) true))
 ))
 (let (($x64 (forall ((|X:client| client) )(=> (|work_created[0]| |X:client|) true))
 ))
 (and $x64 $x114 $x77 (=> |work_created[3]| true) (=> (not |work_invar[0]|) $x79) (=> l2s_init_3 __l2s_g_4) (=> l2s_init_4 l2s_g_5) (=> l2s_init_2 l2s_g_3) (=> l2s_init_1 l2s_g_2) (=> l2s_init_0 l2s_g_1) (not $x452) $x297 $x124 $x130 $x341 $x70 $x24 $x7 $x475 $x586 $x11 $x357 $x123 $x119 $x393 $x546 $x138 $x381 $x584 $x26 $x135 $x103 $x48 (not (and homeCurrentReqExclusive homeCurrentReqShared)) $x96 $x395 $x58 $x87 $x369 $x472 $x191 $x533 $x295 $x19 $x218 $x487 $x457 (= |__work_needed[3]| $x268) (=> __l2s_g_4 (not __l2s_g_8)) (=> l2s_g_2 (not l2s_g_6)) (=> l2s_g_6 $x19) (=> l2s_g_3 (not l2s_g_7)) (=> __l2s_g_8 $x191) (=> l2s_g_9 $x533) (=> l2s_g_0 homeCurrentReqExclusive) (=> l2s_g_7 $x295) (=> l2s_g_5 (not l2s_g_9)) (=> (and l2s_g_1 homeCurrentReqExclusive) (not l2s_g_0)) (not (__invalidate |__fml:cl|)) (not (grantShared |__fml:cl|)) (not (grantExclusive |__fml:cl|)) $x306 $x65 (=> __m__old_l2s_g_4 __m_l2s_g_4) (=> (and (not __m__old_l2s_g_4) $x455) (not __m_l2s_g_4)) (=> __m__old_l2s_g_8 __m_l2s_g_8) $x404 (=> __m_l2s_g_4 $x455) (=> __m_l2s_g_8 $x416) (=> new__old_l2s_g_4_a l2s_g_4) (=> (and (not new__old_l2s_g_4_a) (not l2s_g_8)) (not l2s_g_4)) (=> new__old_l2s_g_8_a l2s_g_8) (=> (and (not new__old_l2s_g_8_a) $x416) (not l2s_g_8)) (=> l2s_g_4 (not l2s_g_8)) (=> l2s_g_8 $x153) $x318 $x158 $x21 $x511 (= |work_invar[0]| (and homeCurrentReqExclusive l2s_g_0)) $x42 $x315 (= |work_invar[1]| (and homeCurrentReqExclusive l2s_g_0)) $x310 $x485 (= |work_invar[2]| (and homeCurrentReqExclusive l2s_g_0)) |work_created[3]| (= |work_needed[3]| $x271) (= |work_invar[3]| (and homeCurrentReqExclusive l2s_g_0)) $x63 $x402 $x483 $x382 (= l2s_w_0 (and $x19 (not l2s_g_6))) $x303 $x500 __m_signal_sendInvalidateRule (= __m_l2s_w_2 (and __m_l2s_w_2_a $x416 $x455)) $x279 $x494 $x153 $x426 $x150 $x434)))))))))))))))))))))))))))))))))))))))))))))))))))))))))))))))))))))
(assert
 (let (($x264 (and (and (__homeInvalidateList @X) (not (__invalidate @X))) (not (invalidateAck @X)))))
 (let (($x346 (=> (and |work_invar[0]| $x264 (not l2s_w_2)) (and (|__work_needed[0]| @X) (not (|work_needed[0]| @X))))))
 (and (not $x346)))))
(assert
 (forall ((|Xclient:client| client) )(or (= |Xclient:client| __client$0) (= |Xclient:client| __client$1)))
 )
(check-sat)
